(assert (forall ((pkt_0_4_6_0  Int  )(state_group_0_state_0_5_7_0  Int  )(state_group_0_state_1_6_8_0  Int  )) (let ((_n0 state_group_0_state_1_6_8_0 ))
(let ((_n1 state_group_0_state_0_5_7_0 ))
(let ((_n2 true ))
(let ((_n3 (+   _n1   (ite  _n2  1 0) ) ))
(let ((_n4 (ite (=  _n0  0)  _n3   _n1  ) ))
(let ((_n5 999 ))
(let ((_n6 (=   _n1   _n5 ) ))
(let ((_n7 false ))
(let ((_n8 (ite (=  _n1  999)  (ite  _n7  1 0)   _n0  ) ))
(let ((_n9 (=   _n8   (ite  _n7  1 0) ) ))
(let ((_n10 (ite (=  _n1  999)  _n7   _n9  ) ))
(let ((_n11 (not  _n10 ) ))
(let ((_n12 (or   _n11   _n6 ) ))
(let ((_n13 3 ))
(let ((_n14 (ite  _n12   (ite  _n7  1 0)   _n1  ) ))
(let ((_n15 (<   _n14   _n13 ) ))
(let ((_n16 (ite  _n12   _n7   _n15  ) ))
(let ((_n17 (or   _n16   _n12 ) ))
(let ((_n18 (not  _n17 ) ))
(let ((_n19 (+   _n1   (ite  _n18  1 0) ) ))
(let ((_n20 (not  _n16 ) ))
(let ((_n21 (or   _n20   _n12 ) ))
(let ((_n22 (not  _n21 ) ))
(let ((_n23 (+   _n1   (ite  _n22  1 0) ) ))
(let ((_n24 (ite (=  (ite  _n16  1 0)  1)  _n23   _n19  ) ))
(let ((_n25 (ite (=  (ite  _n10  1 0)  1)  _n24   _n1  ) ))
(let ((_n26 pkt_0_4_6_0 ))
(let ((_n27 (ite (=  _n1  999)  _n26   (ite  _n7  1 0)  ) ))
(let ((_n28 (ite (=  _n1  999)  _n0   (ite  _n7  1 0)  ) ))
(let ((_n29 (+   _n28   _n27 ) ))
(let ((_n30 (=   _n29   (ite  _n2  1 0) ) ))
(let ((_n31 (ite (=  _n1  999)  _n30   _n7  ) ))
(let ((_n32 (not  _n6 ) ))
(let ((_n33 (or   _n31   _n32 ) ))
(let ((_n34 (not  _n33 ) ))
(let ((_n35 (+   _n1   (ite  _n34  1 0) ) ))
(let ((_n36 (and   _n31   _n6 ) ))
(let ((_n37 (ite  _n36   _n5   (ite  _n7  1 0)  ) ))
(let ((_n38 (ite  _n36   _n26   (ite  _n7  1 0)  ) ))
(let ((_n39 (+   _n38   _n37 ) ))
(let ((_n40 (ite  _n36   _n39   (ite  _n7  1 0)  ) ))
(let ((_n41 (ite  _n36   (ite  _n7  1 0)   _n1  ) ))
(let ((_n42 (+   _n41   _n40 ) ))
(let ((_n43 (ite (=  (ite  _n31  1 0)  1)  _n42   _n35  ) ))
(let ((_n44 (ite (=  (ite  _n6  1 0)  1)  _n43   _n25  ) ))
(let ((_n45 (=   _n44   _n4 ) ))
(let ((_n47 (ite (=  _n1  999)  (ite  _n2  1 0)   _n0  ) ))
(let ((_n48 (ite (=  _n0  0)  _n47   _n0  ) ))
(let ((_n49 (+   _n0   (ite  _n34  1 0) ) ))
(let ((_n50 (ite  _n36   (ite  _n7  1 0)   _n0  ) ))
(let ((_n51 (+   _n50   (ite  _n36  1 0) ) ))
(let ((_n52 (ite (=  (ite  _n31  1 0)  1)  _n51   _n49  ) ))
(let ((_n53 (ite (=  (ite  _n6  1 0)  1)  _n52   _n0  ) ))
(let ((_n54 (=   _n53   _n48 ) ))
(let ((_n56 (ite (=  _n26  0)  _n26   (ite  _n7  1 0)  ) ))
(let ((_n57 (ite (=  _n26  0)  _n56   _n26  ) ))
(let ((_n58 (=   _n57   _n26 ) ))
(implies  (and (and (>= state_group_0_state_1_6_8_0 0) (< state_group_0_state_1_6_8_0 1024 ))  (and (and (>= state_group_0_state_0_5_7_0 0) (< state_group_0_state_0_5_7_0 1024 ))  (and (>= pkt_0_4_6_0 0) (< pkt_0_4_6_0 1024 )) ) )   (and  _n45  _n54  _n58 )  ))))))))))))))))))))))))))))))))))))))))))))))))))))))))))))
(check-sat)
(get-model)
(exit)